%%% static parameters %%%
timespan = 1;
Fact = [2];
Distr1 = [5];
Distr2 = [10];
Clients_N = [60];
Demand_W = [15];
Lt0 = [4];
Lt1 = [4];
SS_ = [0.85];
DS_D = [8];
K = [200];
MA = [500];
%%% dynamic parameters %%%
lost_ratio_sales_ret_th = 0.7454438738731731;
lost_ratio_sales_ret_w = 23;
lost_ratio_sales_dis_th = 0.26255112265782443;
lost_ratio_sales_dis_w = 99;
lost_ratio_sales_fac_th = 0.6805090132251088;
lost_ratio_sales_fac_w = 52;
stock_customer_MA_mean_relative_th = 0.9723421488144983;
stock_customer_MA_mean_relative_w = 87;
stock_distributor_MA_mean_relative_th = 0.46682463871134317;
stock_distributor_MA_mean_relative_w = 100;
stock_retailer_MA_mean_relative_th = 0.24069515682013232;
stock_retailer_MA_mean_relative_w = 79;
stock_factory_MA_mean_relative_th = 0.3160178717512764;
stock_factory_MA_mean_relative_w = 93;
